54924
54, 34, 53, 23, 21, 29, 22, 10, 16, 39, 46, 36, 15, 52, 42, 33, 1, 27, 31, 25, 11, 45, 2, 14, 9, 47, 7, 18, 37, 3, 26, 13, 51, 5, 40, 19, 4, 28, 30, 43, 8, 44, 6, 55, 38, 24, 12, 32, 41, 35, 50, 20, 17, 48, 49
